% Auto-generated by scripts/generate_dzn.py
% problem_type   = regex
% instance       = regex_68
% source_json    = instances_json/2_high_blowup/regex_68.json
% blowup         = 20.217391304347824
% representation = NFA

mode = 1;

var_count = 24;
Q = 23;
S = 2;
q0 = 1;
F = {22, 23};
d_dfa = array2d(1..23, 1..2, [
  0, 0,
  0, 0,
  0, 0,
  0, 0,
  0, 0,
  0, 0,
  0, 0,
  0, 0,
  0, 0,
  0, 0,
  0, 0,
  0, 0,
  0, 0,
  0, 0,
  0, 0,
  0, 0,
  0, 0,
  0, 0,
  0, 0,
  0, 0,
  0, 0,
  0, 0,
  0, 0
]);
d_nfa = array2d(1..23, 1..2, [
  {2, 4}, {3},
  {2, 4}, {3},
  {2, 4}, {3},
  {5}, {},
  {6}, {7},
  {8}, {9},
  {8}, {9},
  {10}, {11},
  {10}, {11},
  {12}, {13},
  {12}, {13},
  {14}, {15},
  {14}, {15},
  {16}, {17},
  {16}, {17},
  {18}, {19},
  {18}, {19},
  {20}, {21},
  {20}, {21},
  {22}, {23},
  {22}, {23},
  {}, {},
  {}, {}
]);
